(declare-fun v5 ()Bool         )
(declare-fun a75 () (Array (_ BitVec 1) (_ BitVec 2)))
(assert
(let (($e26 (_ bv0 2)))
(let (($e215 (store a75 true        $e26 )))
(
                 extract(select $e215(not v5))
                                                                                                                                                                                                                                                                                                                                                                                                                                                                                                                                 ) )                                                                                                                                                                            )                         )
